%-----------------------------------------------------------------------------%
% Dual Arm Multi Capacity Multi Tool Scheduling / Routing
% Assembly Configuration
% Auto Generated by python script, authored by Johan Ludde Wessen 
%-----------------------------------------------------------------------------%


task_durations = [|22, 29, 22, 22, 32, 26, 22, 31, 26, 25, 46, 56, 49, 46, 51, 47, 58, 49, 45, 49,  7,  6,  4,  7,  5,  8,  7,  5,  6
                  |24, 25, 21, 26, 35, 31, 21, 33, 27, 24, 51, 59, 51, 43, 58, 43, 53, 52, 50, 52,  5,  6,  6,  7,  6,  6,  8,  5,  8
                  |];


TRAY_TASKS = 1..8;
CAMERA_TASKS = {  };
OUTPUT_TASKS = { 20 };


empty_gripper_tasks = 21..29;


gripper_pick_tasks_orders = [|1, 11, -1
|2, 12, -1
|3, 13, -1
|4, 14, -1
|5, 15, -1
|6, 16, -1
|7, 17, -1
|8, 18, -1
|9, 19, -1
|10, 20, -1
|];

suction_pick_tasks_orders = [||];

fixture_task_orders = [|11, 21, 12, 22, 13, 23, 14, 24, 9, -1, -1, -1
|15, 25, 16, 26, 17, 27, 18, 28, 19, 29, 10, -1
|];

